(set-logic QF_S)
(declare-fun var0 () String)
(declare-fun var1 () String)
(declare-fun var2 () String)
(declare-fun var3 () String)
(assert (> (str.to.int var0) (str.indexof var1 var2 182)))
(assert (str.suffixof (str.replace "{O4Q\\" var3 var3) (str.replace var1 var0 var3)))
(assert (str.in.re var1 re.allchar))
(assert (str.contains "dwNVU2H" var2))
(check-sat)